proyfinal/src/viki/013/andrea/andrea-localstore/experimentInOfficeAgust.take6/worker_4/51ae4a17-aa39-468d-beb2-b8f77b38bf8a.als.cnf.out
Reading from standard input... Use '--help' for help.
============================[ Problem Statistics ]=============================
|                                                                             |
|  Number of variables:         87638                                         |
|  Number of clauses:          161767                                         |
|  Parse time:                   0.04 s                                       |
|                                                                             |
============================[ Search Statistics ]==============================
| Conflicts |          ORIGINAL         |          LEARNT          | Progress |
|           |    Vars  Clauses Literals |    Limit  Clauses Lit/Cl |          |
===============================================================================
|       100 |   63239   108222   270547 |    39681      100      9 | 27.841 % |
|       250 |   63239   108222   270547 |    43649      250     22 | 27.841 % |
|       475 |   63239   108222   270547 |    48014      475     33 | 27.841 % |
|       812 |   63239   108222   270547 |    52815      812     49 | 27.841 % |
|      1318 |   63239   108222   270547 |    58097     1318     68 | 27.841 % |
|      2077 |   63239   108222   270547 |    63907     2077     62 | 27.841 % |
|      3216 |   63238   108219   270541 |    70298     3215     57 | 27.842 % |
|      4924 |   63237   108175   270451 |    77327     4920     64 | 27.843 % |
|      7486 |   63237   108175   270451 |    85060     7482     78 | 27.843 % |
|     11330 |   63219   108101   270280 |    93566    11098     81 | 27.863 % |
===============================================================================
restarts              : 63
conflicts             : 16588          (6266 /sec)
decisions             : 52033          (0.00 % random) (19656 /sec)
propagations          : 24969808       (9432500 /sec)
conflict literals     : 1188144        (54.38 % deleted)
Memory used           : 26.43 MB
CPU time              : 2.64721 s

INDETERMINATE
